16 32
1 2 5
1 5 5
2 3 3
2 6 2
3 4 1
3 7 2
4 8 5
5 6 3
5 9 4
6 7 2
6 10 3
7 8 5
7 11 5
8 12 2
9 10 3
9 13 4
10 11 4
10 14 4
11 12 4
11 15 3
12 16 5
13 14 4
14 15 5
15 16 1
1 13 2
2 14 3
3 15 2
4 16 3
1 4 5
5 8 5
9 12 3
13 16 3
